c ind 10 100 13 170 172 174 176 18 19 21 0
c ind 23 25 34 37 48 5 50 52 54 6 0
c ind 62 9 0
p cnf 176 660
-1 -2 11 0
-1 2 166 0
-101 102 0
-101 24 0
-102 103 0
-102 22 0
-103 104 0
-103 85 0
-104 -13 21 0
-104 -21 13 0
-105 106 0
-105 24 0
-106 107 0
-106 22 0
-107 104 0
-107 17 0
-108 -109 119 0
-108 109 120 0
-109 -31 110 0
-109 31 64 0
-11 -12 14 0
-11 12 26 0
-110 -39 19 0
-110 39 111 0
-111 -41 112 0
-111 41 64 0
-112 -44 19 0
-112 44 113 0
-113 -56 93 0
-113 56 114 0
-114 -64 60 0
-114 64 115 0
-115 -68 60 0
-115 68 116 0
-116 -73 60 0
-116 73 117 0
-117 -77 60 0
-117 77 118 0
-118 -80 60 0
-118 80 64 0
-119 -99 101 0
-119 99 82 0
-12 -13 5 0
-12 -5 13 0
-120 -121 119 0
-120 121 132 0
-121 -31 122 0
-121 31 68 0
-122 -39 19 0
-122 39 123 0
-123 -41 124 0
-123 41 68 0
-124 -44 19 0
-124 44 125 0
-125 -56 126 0
-125 56 127 0
-126 -61 13 0
-126 61 19 0
-127 -64 60 0
-127 64 128 0
-128 -68 126 0
-128 68 129 0
-129 -73 60 0
-129 73 130 0
-130 -77 60 0
-130 77 131 0
-131 -80 60 0
-131 80 68 0
-132 -133 82 0
-132 133 143 0
-133 -31 134 0
-133 31 73 0
-134 -39 19 0
-134 39 135 0
-135 -41 136 0
-135 41 73 0
-136 -44 19 0
-136 44 137 0
-137 -56 60 0
-137 56 138 0
-138 -64 60 0
-138 64 139 0
-139 -68 93 0
-139 68 140 0
-14 15 0
-14 24 0
-140 -73 126 0
-140 73 141 0
-141 -77 60 0
-141 77 142 0
-142 -80 60 0
-142 80 73 0
-143 -144 98 0
-143 144 154 0
-144 -31 145 0
-144 31 77 0
-145 -39 19 0
-145 39 146 0
-146 -41 147 0
-146 41 77 0
-147 -44 19 0
-147 44 148 0
-148 -56 60 0
-148 56 149 0
-149 -64 126 0
-149 64 150 0
-15 16 0
-15 22 0
-150 -68 60 0
-150 68 151 0
-151 -73 60 0
-151 73 152 0
-152 -77 126 0
-152 77 153 0
-153 -80 60 0
-153 80 77 0
-154 -155 165 0
-154 155 166 0
-155 -31 156 0
-155 31 80 0
-156 -39 19 0
-156 39 157 0
-157 -41 158 0
-157 41 80 0
-158 -44 19 0
-158 44 159 0
-159 -56 60 0
-159 56 160 0
-16 17 0
-16 20 0
-160 -64 60 0
-160 64 161 0
-161 -68 60 0
-161 68 162 0
-162 -73 60 0
-162 73 163 0
-163 -77 93 0
-163 77 164 0
-164 -80 126 0
-164 80 80 0
-165 -99 105 0
-165 99 82 0
-166 167 0
-166 175 0
-167 168 0
-167 173 0
-168 169 0
-168 171 0
-169 -170 18 0
-169 -18 170 0
-17 -18 19 0
-17 -19 18 0
-171 -172 21 0
-171 -21 172 0
-173 -174 23 0
-173 -23 174 0
-175 -176 25 0
-175 -25 176 0
-19 0
-2 3 7 0
-20 -19 21 0
-20 -21 19 0
-22 -19 23 0
-22 -23 19 0
-24 -19 25 0
-24 -25 19 0
-26 -27 29 0
-26 27 166 0
-27 28 0
-27 7 0
-28 -13 9 0
-28 -9 13 0
-29 -30 82 0
-29 30 86 0
-3 -4 0
-30 -31 38 0
-30 31 44 0
-31 32 35 0
-32 -33 0
-33 -34 6 0
-33 -6 34 0
-35 -36 0
-36 -10 37 0
-36 -37 10 0
-38 -39 13 0
-38 39 40 0
-39 -13 6 0
-39 -6 13 0
-4 -5 6 0
-4 -6 5 0
-40 -41 43 0
-40 41 44 0
-41 35 0
-41 42 0
-42 -10 13 0
-42 -13 10 0
-43 -44 19 0
-43 44 55 0
-44 45 0
-44 53 0
-45 46 0
-45 51 0
-46 47 0
-46 49 0
-47 -19 48 0
-47 -48 19 0
-49 -19 50 0
-49 -50 19 0
-51 -19 52 0
-51 -52 19 0
-53 -19 54 0
-53 -54 19 0
-55 -56 60 0
-55 56 63 0
-56 53 0
-56 57 0
-57 51 0
-57 58 0
-58 49 0
-58 59 0
-59 -13 48 0
-59 -48 13 0
-60 -61 19 0
-60 61 19 0
-61 -13 62 0
-61 -62 13 0
-63 -64 60 0
-63 64 67 0
-64 53 0
-64 65 0
-65 58 0
-65 66 0
-66 -13 52 0
-66 -52 13 0
-67 -68 60 0
-67 68 72 0
-68 53 0
-68 69 0
-69 51 0
-69 70 0
-7 -8 0
-70 47 0
-70 71 0
-71 -13 50 0
-71 -50 13 0
-72 -73 60 0
-72 73 76 0
-73 53 0
-73 74 0
-74 51 0
-74 75 0
-75 59 0
-75 71 0
-76 -77 60 0
-76 77 79 0
-77 53 0
-77 78 0
-78 46 0
-78 66 0
-79 -80 60 0
-79 80 44 0
-8 -10 9 0
-8 -9 10 0
-80 53 0
-80 81 0
-81 66 0
-81 70 0
-82 24 0
-82 83 0
-83 22 0
-83 84 0
-84 20 0
-84 85 0
-85 -13 18 0
-85 -18 13 0
-86 -87 98 0
-86 87 108 0
-87 -31 88 0
-87 31 56 0
-88 -39 19 0
-88 39 89 0
-89 -41 90 0
-89 41 56 0
-90 -44 13 0
-90 44 91 0
-91 -56 60 0
-91 56 92 0
-92 -64 93 0
-92 64 94 0
-93 -61 19 0
-93 61 13 0
-94 -68 60 0
-94 68 95 0
-95 -73 93 0
-95 73 96 0
-96 -77 60 0
-96 77 97 0
-97 -80 93 0
-97 80 56 0
-98 -99 101 0
-98 99 105 0
-99 -100 13 0
-99 -13 100 0
1 -11 -166 0
1 -2 -11 0
1 0
1 2 -166 0
101 -102 -24 0
102 -103 -22 0
103 -85 -104 0
104 -21 -13 0
104 21 13 0
105 -106 -24 0
106 -107 -22 0
107 -17 -104 0
108 -109 -119 0
108 -119 -120 0
108 109 -120 0
109 -110 -64 0
109 -31 -110 0
109 31 -64 0
11 -12 -14 0
11 -14 -26 0
11 12 -26 0
110 -19 -111 0
110 -39 -19 0
110 39 -111 0
111 -112 -64 0
111 -41 -112 0
111 41 -64 0
112 -19 -113 0
112 -44 -19 0
112 44 -113 0
113 -56 -93 0
113 -93 -114 0
113 56 -114 0
114 -60 -115 0
114 -64 -60 0
114 64 -115 0
115 -60 -116 0
115 -68 -60 0
115 68 -116 0
116 -60 -117 0
116 -73 -60 0
116 73 -117 0
117 -60 -118 0
117 -77 -60 0
117 77 -118 0
118 -60 -64 0
118 -80 -60 0
118 80 -64 0
119 -101 -82 0
119 -99 -101 0
119 99 -82 0
12 -5 -13 0
12 5 13 0
120 -119 -132 0
120 -121 -119 0
120 121 -132 0
121 -122 -68 0
121 -31 -122 0
121 31 -68 0
122 -19 -123 0
122 -39 -19 0
122 39 -123 0
123 -124 -68 0
123 -41 -124 0
123 41 -68 0
124 -19 -125 0
124 -44 -19 0
124 44 -125 0
125 -126 -127 0
125 -56 -126 0
125 56 -127 0
126 -13 -19 0
126 -61 -13 0
126 61 -19 0
127 -60 -128 0
127 -64 -60 0
127 64 -128 0
128 -126 -129 0
128 -68 -126 0
128 68 -129 0
129 -60 -130 0
129 -73 -60 0
129 73 -130 0
13 0
130 -60 -131 0
130 -77 -60 0
130 77 -131 0
131 -60 -68 0
131 -80 -60 0
131 80 -68 0
132 -133 -82 0
132 -82 -143 0
132 133 -143 0
133 -134 -73 0
133 -31 -134 0
133 31 -73 0
134 -19 -135 0
134 -39 -19 0
134 39 -135 0
135 -136 -73 0
135 -41 -136 0
135 41 -73 0
136 -19 -137 0
136 -44 -19 0
136 44 -137 0
137 -56 -60 0
137 -60 -138 0
137 56 -138 0
138 -60 -139 0
138 -64 -60 0
138 64 -139 0
139 -68 -93 0
139 -93 -140 0
139 68 -140 0
14 -15 -24 0
140 -126 -141 0
140 -73 -126 0
140 73 -141 0
141 -60 -142 0
141 -77 -60 0
141 77 -142 0
142 -60 -73 0
142 -80 -60 0
142 80 -73 0
143 -144 -98 0
143 -98 -154 0
143 144 -154 0
144 -145 -77 0
144 -31 -145 0
144 31 -77 0
145 -19 -146 0
145 -39 -19 0
145 39 -146 0
146 -147 -77 0
146 -41 -147 0
146 41 -77 0
147 -19 -148 0
147 -44 -19 0
147 44 -148 0
148 -56 -60 0
148 -60 -149 0
148 56 -149 0
149 -126 -150 0
149 -64 -126 0
149 64 -150 0
15 -16 -22 0
150 -60 -151 0
150 -68 -60 0
150 68 -151 0
151 -60 -152 0
151 -73 -60 0
151 73 -152 0
152 -126 -153 0
152 -77 -126 0
152 77 -153 0
153 -60 -77 0
153 -80 -60 0
153 80 -77 0
154 -155 -165 0
154 -165 -166 0
154 155 -166 0
155 -156 -80 0
155 -31 -156 0
155 31 -80 0
156 -19 -157 0
156 -39 -19 0
156 39 -157 0
157 -158 -80 0
157 -41 -158 0
157 41 -80 0
158 -19 -159 0
158 -44 -19 0
158 44 -159 0
159 -56 -60 0
159 -60 -160 0
159 56 -160 0
16 -17 -20 0
160 -60 -161 0
160 -64 -60 0
160 64 -161 0
161 -60 -162 0
161 -68 -60 0
161 68 -162 0
162 -60 -163 0
162 -73 -60 0
162 73 -163 0
163 -77 -93 0
163 -93 -164 0
163 77 -164 0
164 -126 -80 0
164 -80 -126 0
164 80 -80 0
165 -105 -82 0
165 -99 -105 0
165 99 -82 0
166 -167 -175 0
167 -168 -173 0
168 -169 -171 0
169 -18 -170 0
169 18 170 0
17 -18 -19 0
17 18 19 0
171 -21 -172 0
171 21 172 0
173 -23 -174 0
173 23 174 0
175 -25 -176 0
175 25 176 0
2 -3 0
2 -7 0
20 -21 -19 0
20 21 19 0
22 -23 -19 0
22 23 19 0
24 -25 -19 0
24 25 19 0
26 -27 -29 0
26 -29 -166 0
26 27 -166 0
27 -7 -28 0
28 -9 -13 0
28 9 13 0
29 -30 -82 0
29 -82 -86 0
29 30 -86 0
3 4 0
30 -31 -38 0
30 -38 -44 0
30 31 -44 0
31 -32 0
31 -35 0
32 33 0
33 -6 -34 0
33 6 34 0
35 36 0
36 -10 -37 0
36 10 37 0
38 -13 -40 0
38 -39 -13 0
38 39 -40 0
39 -6 -13 0
39 6 13 0
4 -5 -6 0
4 5 6 0
40 -41 -43 0
40 -43 -44 0
40 41 -44 0
41 -35 -42 0
42 -10 -13 0
42 10 13 0
43 -19 -55 0
43 -44 -19 0
43 44 -55 0
44 -45 -53 0
45 -46 -51 0
46 -47 -49 0
47 -48 -19 0
47 48 19 0
49 -50 -19 0
49 50 19 0
51 -52 -19 0
51 52 19 0
53 -54 -19 0
53 54 19 0
55 -56 -60 0
55 -60 -63 0
55 56 -63 0
56 -57 -53 0
57 -58 -51 0
58 -59 -49 0
59 -48 -13 0
59 48 13 0
60 -19 -19 0
60 -61 -19 0
60 61 -19 0
61 -62 -13 0
61 62 13 0
63 -60 -67 0
63 -64 -60 0
63 64 -67 0
64 -65 -53 0
65 -58 -66 0
66 -52 -13 0
66 52 13 0
67 -60 -72 0
67 -68 -60 0
67 68 -72 0
68 -69 -53 0
69 -70 -51 0
7 8 0
70 -47 -71 0
71 -50 -13 0
71 50 13 0
72 -60 -76 0
72 -73 -60 0
72 73 -76 0
73 -74 -53 0
74 -75 -51 0
75 -59 -71 0
76 -60 -79 0
76 -77 -60 0
76 77 -79 0
77 -78 -53 0
78 -46 -66 0
79 -60 -44 0
79 -80 -60 0
79 80 -44 0
8 -9 -10 0
8 9 10 0
80 -81 -53 0
81 -70 -66 0
82 -83 -24 0
83 -84 -22 0
84 -85 -20 0
85 -18 -13 0
85 18 13 0
86 -87 -98 0
86 -98 -108 0
86 87 -108 0
87 -31 -88 0
87 -88 -56 0
87 31 -56 0
88 -19 -89 0
88 -39 -19 0
88 39 -89 0
89 -41 -90 0
89 -90 -56 0
89 41 -56 0
90 -13 -91 0
90 -44 -13 0
90 44 -91 0
91 -56 -60 0
91 -60 -92 0
91 56 -92 0
92 -64 -93 0
92 -93 -94 0
92 64 -94 0
93 -19 -13 0
93 -61 -19 0
93 61 -13 0
94 -60 -95 0
94 -68 -60 0
94 68 -95 0
95 -73 -93 0
95 -93 -96 0
95 73 -96 0
96 -60 -97 0
96 -77 -60 0
96 77 -97 0
97 -80 -93 0
97 -93 -56 0
97 80 -56 0
98 -101 -105 0
98 -99 -101 0
98 99 -105 0
99 -100 -13 0
99 100 13 0
